p tw 496 1664
1 33
2 34
3 35
4 36
5 37
6 38
7 39
8 40
9 41
10 42
11 43
12 44
13 45
14 46
15 47
16 48
17 49
18 50
19 51
20 52
21 53
22 54
23 55
24 56
25 57
26 58
27 59
28 60
29 61
30 62
31 63
32 64
33 105
33 118
33 120
33 121
34 66
34 80
34 84
34 85
35 80
35 81
35 82
35 83
36 87
36 94
36 132
36 134
37 100
37 125
37 138
37 141
38 90
38 97
38 127
38 128
39 81
39 96
39 97
39 98
40 73
40 103
40 132
40 133
41 110
41 115
41 118
41 119
42 82
42 138
42 139
42 140
43 102
43 109
43 110
43 111
44 72
44 73
44 74
44 75
45 74
45 116
45 135
45 137
46 65
46 69
46 70
46 71
47 89
47 90
47 91
47 92
48 70
48 139
48 142
48 144
49 99
49 127
49 135
49 136
50 76
50 77
50 78
50 79
51 89
51 112
51 125
51 126
52 67
52 112
52 113
52 114
53 77
53 93
53 94
53 95
54 109
54 115
54 116
54 117
55 93
55 106
55 122
55 124
56 76
56 86
56 87
56 88
57 91
57 113
57 142
57 143
58 65
58 66
58 67
58 68
59 84
59 120
59 129
59 131
60 86
60 107
60 129
60 130
61 69
61 99
61 100
61 101
62 78
62 96
62 122
62 123
63 72
63 102
63 103
63 104
64 105
64 106
64 107
64 108
65 66
65 67
65 68
65 69
65 70
65 71
66 67
66 68
66 80
66 84
66 85
67 68
67 112
67 113
67 114
68 145
68 146
68 147
68 148
69 70
69 71
69 99
69 100
69 101
70 71
70 139
70 142
70 144
71 145
71 149
71 150
71 151
72 73
72 74
72 75
72 102
72 103
72 104
73 74
73 75
73 103
73 132
73 133
74 75
74 116
74 135
74 137
75 152
75 153
75 154
75 155
76 77
76 78
76 79
76 86
76 87
76 88
77 78
77 79
77 93
77 94
77 95
78 79
78 96
78 122
78 123
79 156
79 157
79 158
79 159
80 81
80 82
80 83
80 84
80 85
81 82
81 83
81 96
81 97
81 98
82 83
82 138
82 139
82 140
83 160
83 161
83 162
83 163
84 85
84 120
84 129
84 131
85 146
85 160
85 164
85 165
86 87
86 88
86 107
86 129
86 130
87 88
87 94
87 132
87 134
88 156
88 166
88 167
88 168
89 90
89 91
89 92
89 112
89 125
89 126
90 91
90 92
90 97
90 127
90 128
91 92
91 113
91 142
91 143
92 169
92 170
92 171
92 172
93 94
93 95
93 106
93 122
93 124
94 95
94 132
94 134
95 157
95 173
95 174
95 175
96 97
96 98
96 122
96 123
97 98
97 127
97 128
98 161
98 176
98 177
98 178
99 100
99 101
99 127
99 135
99 136
100 101
100 125
100 138
100 141
101 149
101 179
101 180
101 181
102 103
102 104
102 109
102 110
102 111
103 104
103 132
103 133
104 152
104 182
104 183
104 184
105 106
105 107
105 108
105 118
105 120
105 121
106 107
106 108
106 122
106 124
107 108
107 129
107 130
108 185
108 186
108 187
108 188
109 110
109 111
109 115
109 116
109 117
110 111
110 115
110 118
110 119
111 182
111 189
111 190
111 191
112 113
112 114
112 125
112 126
113 114
113 142
113 143
114 147
114 192
114 193
114 194
115 116
115 117
115 118
115 119
116 117
116 135
116 137
117 189
117 195
117 196
117 197
118 119
118 120
118 121
119 190
119 195
119 198
119 199
120 121
120 129
120 131
121 185
121 198
121 200
121 201
122 123
122 124
123 158
123 176
123 202
123 203
124 173
124 186
124 202
124 204
125 126
125 138
125 141
126 169
126 192
126 205
126 206
127 128
127 135
127 136
128 170
128 177
128 207
128 208
129 130
129 131
130 166
130 187
130 209
130 210
131 164
131 200
131 209
131 211
132 133
132 134
133 153
133 183
133 212
133 213
134 167
134 174
134 212
134 214
135 136
135 137
136 179
136 207
136 215
136 216
137 154
137 196
137 215
137 217
138 139
138 140
138 141
139 140
139 142
139 144
140 162
140 218
140 219
140 220
141 180
141 205
141 218
141 221
142 143
142 144
143 171
143 193
143 222
143 223
144 150
144 219
144 222
144 224
145 146
145 147
145 148
145 149
145 150
145 151
146 147
146 148
146 160
146 164
146 165
147 148
147 192
147 193
147 194
148 225
148 226
148 227
148 228
149 150
149 151
149 179
149 180
149 181
150 151
150 219
150 222
150 224
151 225
151 229
151 230
151 231
152 153
152 154
152 155
152 182
152 183
152 184
153 154
153 155
153 183
153 212
153 213
154 155
154 196
154 215
154 217
155 232
155 233
155 234
155 235
156 157
156 158
156 159
156 166
156 167
156 168
157 158
157 159
157 173
157 174
157 175
158 159
158 176
158 202
158 203
159 236
159 237
159 238
159 239
160 161
160 162
160 163
160 164
160 165
161 162
161 163
161 176
161 177
161 178
162 163
162 218
162 219
162 220
163 240
163 241
163 242
163 243
164 165
164 200
164 209
164 211
165 226
165 240
165 244
165 245
166 167
166 168
166 187
166 209
166 210
167 168
167 174
167 212
167 214
168 236
168 246
168 247
168 248
169 170
169 171
169 172
169 192
169 205
169 206
170 171
170 172
170 177
170 207
170 208
171 172
171 193
171 222
171 223
172 249
172 250
172 251
172 252
173 174
173 175
173 186
173 202
173 204
174 175
174 212
174 214
175 237
175 253
175 254
175 255
176 177
176 178
176 202
176 203
177 178
177 207
177 208
178 241
178 256
178 257
178 258
179 180
179 181
179 207
179 215
179 216
180 181
180 205
180 218
180 221
181 229
181 259
181 260
181 261
182 183
182 184
182 189
182 190
182 191
183 184
183 212
183 213
184 232
184 262
184 263
184 264
185 186
185 187
185 188
185 198
185 200
185 201
186 187
186 188
186 202
186 204
187 188
187 209
187 210
188 265
188 266
188 267
188 268
189 190
189 191
189 195
189 196
189 197
190 191
190 195
190 198
190 199
191 262
191 269
191 270
191 271
192 193
192 194
192 205
192 206
193 194
193 222
193 223
194 227
194 272
194 273
194 274
195 196
195 197
195 198
195 199
196 197
196 215
196 217
197 269
197 275
197 276
197 277
198 199
198 200
198 201
199 270
199 275
199 278
199 279
200 201
200 209
200 211
201 265
201 278
201 280
201 281
202 203
202 204
203 238
203 256
203 282
203 283
204 253
204 266
204 282
204 284
205 206
205 218
205 221
206 249
206 272
206 285
206 286
207 208
207 215
207 216
208 250
208 257
208 287
208 288
209 210
209 211
210 246
210 267
210 289
210 290
211 244
211 280
211 289
211 291
212 213
212 214
213 233
213 263
213 292
213 293
214 247
214 254
214 292
214 294
215 216
215 217
216 259
216 287
216 295
216 296
217 234
217 276
217 295
217 297
218 219
218 220
218 221
219 220
219 222
219 224
220 242
220 298
220 299
220 300
221 260
221 285
221 298
221 301
222 223
222 224
223 251
223 273
223 302
223 303
224 230
224 299
224 302
224 304
225 226
225 227
225 228
225 229
225 230
225 231
226 227
226 228
226 240
226 244
226 245
227 228
227 272
227 273
227 274
228 305
228 306
228 307
228 308
229 230
229 231
229 259
229 260
229 261
230 231
230 299
230 302
230 304
231 305
231 309
231 310
231 311
232 233
232 234
232 235
232 262
232 263
232 264
233 234
233 235
233 263
233 292
233 293
234 235
234 276
234 295
234 297
235 312
235 313
235 314
235 315
236 237
236 238
236 239
236 246
236 247
236 248
237 238
237 239
237 253
237 254
237 255
238 239
238 256
238 282
238 283
239 316
239 317
239 318
239 319
240 241
240 242
240 243
240 244
240 245
241 242
241 243
241 256
241 257
241 258
242 243
242 298
242 299
242 300
243 320
243 321
243 322
243 323
244 245
244 280
244 289
244 291
245 306
245 320
245 324
245 325
246 247
246 248
246 267
246 289
246 290
247 248
247 254
247 292
247 294
248 316
248 326
248 327
248 328
249 250
249 251
249 252
249 272
249 285
249 286
250 251
250 252
250 257
250 287
250 288
251 252
251 273
251 302
251 303
252 329
252 330
252 331
252 332
253 254
253 255
253 266
253 282
253 284
254 255
254 292
254 294
255 317
255 333
255 334
255 335
256 257
256 258
256 282
256 283
257 258
257 287
257 288
258 321
258 336
258 337
258 338
259 260
259 261
259 287
259 295
259 296
260 261
260 285
260 298
260 301
261 309
261 339
261 340
261 341
262 263
262 264
262 269
262 270
262 271
263 264
263 292
263 293
264 312
264 342
264 343
264 344
265 266
265 267
265 268
265 278
265 280
265 281
266 267
266 268
266 282
266 284
267 268
267 289
267 290
268 345
268 346
268 347
268 348
269 270
269 271
269 275
269 276
269 277
270 271
270 275
270 278
270 279
271 342
271 349
271 350
271 351
272 273
272 274
272 285
272 286
273 274
273 302
273 303
274 307
274 352
274 353
274 354
275 276
275 277
275 278
275 279
276 277
276 295
276 297
277 349
277 355
277 356
277 357
278 279
278 280
278 281
279 350
279 355
279 358
279 359
280 281
280 289
280 291
281 345
281 358
281 360
281 361
282 283
282 284
283 318
283 336
283 362
283 363
284 333
284 346
284 362
284 364
285 286
285 298
285 301
286 329
286 352
286 365
286 366
287 288
287 295
287 296
288 330
288 337
288 367
288 368
289 290
289 291
290 326
290 347
290 369
290 370
291 324
291 360
291 369
291 371
292 293
292 294
293 313
293 343
293 372
293 373
294 327
294 334
294 372
294 374
295 296
295 297
296 339
296 367
296 375
296 376
297 314
297 356
297 375
297 377
298 299
298 300
298 301
299 300
299 302
299 304
300 322
300 378
300 379
300 380
301 340
301 365
301 378
301 381
302 303
302 304
303 331
303 353
303 382
303 383
304 310
304 379
304 382
304 384
305 306
305 307
305 308
305 309
305 310
305 311
306 307
306 308
306 320
306 324
306 325
307 308
307 352
307 353
307 354
308 385
308 386
308 387
308 388
309 310
309 311
309 339
309 340
309 341
310 311
310 379
310 382
310 384
311 385
311 389
311 390
311 391
312 313
312 314
312 315
312 342
312 343
312 344
313 314
313 315
313 343
313 372
313 373
314 315
314 356
314 375
314 377
315 392
315 393
315 394
315 395
316 317
316 318
316 319
316 326
316 327
316 328
317 318
317 319
317 333
317 334
317 335
318 319
318 336
318 362
318 363
319 396
319 397
319 398
319 399
320 321
320 322
320 323
320 324
320 325
321 322
321 323
321 336
321 337
321 338
322 323
322 378
322 379
322 380
323 400
323 401
323 402
323 403
324 325
324 360
324 369
324 371
325 386
325 400
325 404
325 405
326 327
326 328
326 347
326 369
326 370
327 328
327 334
327 372
327 374
328 396
328 406
328 407
328 408
329 330
329 331
329 332
329 352
329 365
329 366
330 331
330 332
330 337
330 367
330 368
331 332
331 353
331 382
331 383
332 409
332 410
332 411
332 412
333 334
333 335
333 346
333 362
333 364
334 335
334 372
334 374
335 397
335 413
335 414
335 415
336 337
336 338
336 362
336 363
337 338
337 367
337 368
338 401
338 416
338 417
338 418
339 340
339 341
339 367
339 375
339 376
340 341
340 365
340 378
340 381
341 389
341 419
341 420
341 421
342 343
342 344
342 349
342 350
342 351
343 344
343 372
343 373
344 392
344 422
344 423
344 424
345 346
345 347
345 348
345 358
345 360
345 361
346 347
346 348
346 362
346 364
347 348
347 369
347 370
348 425
348 426
348 427
348 428
349 350
349 351
349 355
349 356
349 357
350 351
350 355
350 358
350 359
351 422
351 429
351 430
351 431
352 353
352 354
352 365
352 366
353 354
353 382
353 383
354 387
354 432
354 433
354 434
355 356
355 357
355 358
355 359
356 357
356 375
356 377
357 429
357 435
357 436
357 437
358 359
358 360
358 361
359 430
359 435
359 438
359 439
360 361
360 369
360 371
361 425
361 438
361 440
361 441
362 363
362 364
363 398
363 416
363 442
363 443
364 413
364 426
364 442
364 444
365 366
365 378
365 381
366 409
366 432
366 445
366 446
367 368
367 375
367 376
368 410
368 417
368 447
368 448
369 370
369 371
370 406
370 427
370 449
370 450
371 404
371 440
371 449
371 451
372 373
372 374
373 393
373 423
373 452
373 453
374 407
374 414
374 452
374 454
375 376
375 377
376 419
376 447
376 455
376 456
377 394
377 436
377 455
377 457
378 379
378 380
378 381
379 380
379 382
379 384
380 402
380 458
380 459
380 460
381 420
381 445
381 458
381 461
382 383
382 384
383 411
383 433
383 462
383 463
384 390
384 459
384 462
384 464
385 386
385 387
385 388
385 389
385 390
385 391
386 387
386 388
386 400
386 404
386 405
387 388
387 432
387 433
387 434
388 471
389 390
389 391
389 419
389 420
389 421
390 391
390 459
390 462
390 464
391 483
392 393
392 394
392 395
392 422
392 423
392 424
393 394
393 395
393 423
393 452
393 453
394 395
394 436
394 455
394 457
395 485
396 397
396 398
396 399
396 406
396 407
396 408
397 398
397 399
397 413
397 414
397 415
398 399
398 416
398 442
398 443
399 479
400 401
400 402
400 403
400 404
400 405
401 402
401 403
401 416
401 417
401 418
402 403
402 458
402 459
402 460
403 494
404 405
404 440
404 449
404 451
405 495
406 407
406 408
406 427
406 449
406 450
407 408
407 414
407 452
407 454
408 473
409 410
409 411
409 412
409 432
409 445
409 446
410 411
410 412
410 417
410 447
410 448
411 412
411 433
411 462
411 463
412 482
413 414
413 415
413 426
413 442
413 444
414 415
414 452
414 454
415 476
416 417
416 418
416 442
416 443
417 418
417 447
417 448
418 490
419 420
419 421
419 447
419 455
419 456
420 421
420 445
420 458
420 461
421 468
422 423
422 424
422 429
422 430
422 431
423 424
423 452
423 453
424 466
425 426
425 427
425 428
425 438
425 440
425 441
426 427
426 428
426 442
426 444
427 428
427 449
427 450
428 465
429 430
429 431
429 435
429 436
429 437
430 431
430 435
430 438
430 439
431 486
432 433
432 434
432 445
432 446
433 434
433 462
433 463
434 477
435 436
435 437
435 438
435 439
436 437
436 455
436 457
437 475
438 439
438 440
438 441
439 488
440 441
440 449
440 451
441 496
442 443
442 444
443 467
444 474
445 446
445 458
445 461
446 478
447 448
447 455
447 456
448 491
449 450
449 451
450 469
451 470
452 453
452 454
453 489
454 493
455 456
455 457
456 480
457 484
458 459
458 460
458 461
459 460
459 462
459 464
460 487
461 492
462 463
462 464
463 472
464 481
